(set-logic ALL)
(declare-fun var0 () String)
(assert (str.in_re var0 (re.++ (re.* (re.+ (str.to_re "0"))) (re.++ (re.union (re.+ (str.to_re "111")) (re.+ (str.to_re "2"))) (re.++ (re.* (re.union (str.to_re "33") (str.to_re "444"))) (re.++ (re.+ (re.* (str.to_re "55"))) (re.++ (re.+ (re.+ (str.to_re "6"))) (re.++ (re.+ (re.+ (str.to_re "77"))) (re.++ (re.union (re.union (str.to_re "8") (str.to_re "9")) (re.union (str.to_re "a") (str.to_re "b"))) (re.++ (re.+ (re.union (str.to_re "cc") (str.to_re "dd"))) (re.++ (re.+ (re.* (str.to_re "eee"))) (re.++ (re.+ (re.union (str.to_re "fff") (str.to_re "ggg"))) (re.++ (re.union (re.+ (str.to_re "hhh")) (re.+ (str.to_re "iii"))) (re.++ (re.* (re.+ (str.to_re "j"))) (re.++ (re.* (re.union (str.to_re "kkk") (str.to_re "lll"))) (re.++ (re.+ (re.+ (str.to_re "mmm"))) (re.++ (re.union (re.union (str.to_re "nnn") (str.to_re "oo")) (re.union (str.to_re "p") (str.to_re "q"))) (re.++ (re.+ (re.union (str.to_re "rr") (str.to_re "sss"))) (re.++ (re.union (re.union (str.to_re "t") (str.to_re "u")) (re.union (str.to_re "v") (str.to_re "ww"))) (re.++ (re.union (re.* (str.to_re "xx")) (re.* (str.to_re "yy"))) (re.++ (re.union (re.union (str.to_re "z") (str.to_re "AAA")) (re.union (str.to_re "B") (str.to_re "C"))) (re.++ (re.+ (re.+ (str.to_re "D"))) (re.++ (re.union (re.* (str.to_re "EE")) (re.* (str.to_re "FFF"))) (re.* (re.* (str.to_re "G"))))))))))))))))))))))))))
(check-sat)